200
1000
264
263
262
261
260
260
259
255
255
255
253
252
250
248
243
242
241
241
241
236
235
234
233
232
231
230
230
226
226
225
225
224
224
221
220
218
216
210
208
206
205
203
203
203
200
196
196
196
195
192
192
190
189
189
188
188
187
186
184
184
183
182
180
179
179
175
175
173
173
172
171
170
169
169
166
165
163
162
162
162
160
160
160
159
159
158
158
157
157
156
153
151
149
149
149
148
148
147
147
146
146
146
144
143
142
141
141
139
139
139
138
138
138
137
133
132
132
132
126
125
123
121
121
119
119
119
118
118
118
116
115
113
109
108
106
105
104
102
100
99
99
97
97
97
97
93
93
91
88
85
84
84
83
83
82
81
80
80
79
77
75
73
73
69
69
68
66
66
64
63
62
61
57
55
54
53
52
50
49
47
46
45
43
42
37
36
35
35
34
34
31
28
28
26
24
24
24
22
18
17
